scenarios/sols/small/emicp_milp/017.sol
objective value:                      1.0811151146186
x(0,2,0)                                            1 	(obj:0)
x(1,10,0)                                           1 	(obj:0)
x(2,1,0)                                            1 	(obj:0)
x(2,7,1)                                            1 	(obj:0)
x(3,8,1)                                            1 	(obj:0)
x(4,7,2)                                            1 	(obj:0)
x(7,3,1)                                            1 	(obj:0)
x(7,14,2)                                           1 	(obj:0)
x(8,12,1)                                           1 	(obj:0)
x(10,0,0)                                           1 	(obj:0)
x(12,2,1)                                           1 	(obj:0)
x(14,4,2)                                           1 	(obj:0)
xc(0,9)                                             1 	(obj:0)
xc(3,0)                                             1 	(obj:0)
u(1,0)                                1.0000389832867 	(obj:0)
u(2,0)                              0.327317140563201 	(obj:0)
u(3,1)                              0.802739956046402 	(obj:0)
u(7,1)                              0.410852284367101 	(obj:0)
u(7,2)                              0.540557557309301 	(obj:0)
u(8,1)                              0.997834689876202 	(obj:0)
u(10,0)                               1.0811151146186 	(obj:0)
u(10,1)                             0.323885828183601 	(obj:0)
u(10,2)                               0.1051986682109 	(obj:0)
u(11,0)                            0.0794987294641007 	(obj:0)
u(11,1)                               0.3824711698478 	(obj:0)
u(11,2)                               0.1357377084048 	(obj:0)
u(12,0)                             0.313034202305499 	(obj:0)
u(12,1)                               1.0811151146186 	(obj:0)
u(13,0)                             0.203474222008499 	(obj:0)
u(13,1)                             0.229125378653601 	(obj:0)
u(14,0)                             0.458564672507848 	(obj:0)
u(14,1)                             0.458564672507848 	(obj:0)
u(14,2)                               1.0811151146186 	(obj:0)
u(15,0)                             0.458564672507848 	(obj:0)
u(15,1)                             0.295646499553701 	(obj:0)
u(15,2)                            0.0551200028107992 	(obj:0)
u(16,0)                             0.458564672507848 	(obj:0)
u(16,1)                             0.355941327391401 	(obj:0)
u(17,0)                             0.458564672507848 	(obj:0)
u(17,1)                               0.3761618382382 	(obj:0)
u(18,0)                             0.230497220715199 	(obj:0)
u(18,1)                            0.0820193532615008 	(obj:0)
u(19,0)                               0.2846194091626 	(obj:0)
u(19,1)                             0.458564672507848 	(obj:0)
u(19,2)                                 0.25510549022 	(obj:0)
f(0,9,0)                                            1 	(obj:0)
f(0,9,1)                                            1 	(obj:0)
f(0,9,2)                                            1 	(obj:0)
f(0,9,3)                                            1 	(obj:0)
f(0,9,4)                                            1 	(obj:0)
f(1,10,1)                                           1 	(obj:0)
f(2,7,2)                                            1 	(obj:0)
f(3,0,2)                                            1 	(obj:0)
f(3,0,3)                                            1 	(obj:0)
f(3,0,4)                                            1 	(obj:0)
f(4,7,4)                                            1 	(obj:0)
f(7,3,2)                                            1 	(obj:0)
f(7,3,4)                                            1 	(obj:0)
f(10,0,1)                                           1 	(obj:0)
z_r(0,)                               1.0811151146186 	(obj:0)
z_r(1,)                               1.0811151146186 	(obj:0)
z_r(2,)                               1.0811151146186 	(obj:0)
z                                     1.0811151146186 	(obj:1)
