scenarios/sols/small/emicp_milp/017.out
b'The following solver is parallelized by UG version 0.9.1 [GitHash: ]\n'
b'SCIP version 7.0.2 [precision: 8 byte] [memory: block] [mode: optimized] [LP solver: SoPlex 5.0.2] [GitHash: e9d280a398]\n'
b'Copyright (C) 2002-2020 Konrad-Zuse-Zentrum fuer Informationstechnik Berlin (ZIB)\n'
b'External codes: \n'
b'  Readline 7.0         GNU library for command line editing (gnu.org/s/readline)\n'
b'  SoPlex 5.0.2         Linear Programming Solver developed at Zuse Institute Berlin (soplex.zib.de) [GitHash: e24c304e]\n'
b'  CppAD 20180000.0     Algorithmic Differentiation of C++ algorithms developed by B. Bell (www.coin-or.org/CppAD)\n'
b'  ZLIB 1.2.11          General purpose compression library by J. Gailly and M. Adler (zlib.net)\n'
b'  GMP 6.1.2            GNU Multiple Precision Arithmetic Library developed by T. Granlund (gmplib.org)\n'
b'  ZIMPL 3.4.0          Zuse Institute Mathematical Programming Language developed by T. Koch (zimpl.zib.de)\n'
b'Default LC presolving (default).\n'
b'Original Problem   :\n'
b'  Problem name     : 017\n'
b'  Variables        : 5777 (1600 binary, 0 integer, 0 implicit integer, 4177 continuous)\n'
b'  Constraints      : 14361\n'
b'  Objective sense  : minimize\n'
b'Presolved Problem  :\n'
b'  Variables        : 949 (300 binary, 0 integer, 0 implicit integer, 649 continuous)\n'
b'  Constraints      : 1097\n'
b'Constraints        : Number\n'
b'  varbound         : 140 \n'
b'  knapsack         : 8 \n'
b'  setppc           : 81 \n'
b'  linear           : 867 \n'
b'  logicor          : 1 \n'
b'** Instance transfer method used: 0\n'
b'** ParaScipInstance copy does not increase the number of variables. **\n'
b'LC is working with racing ramp-up and with rebuilding tree after racing.\n'
b'                               Nodes    Active                                            \n'
b'     Time          Nodes        Left   Solvers     Best Integer        Best Node       Gap     Best Node(S)    Gap(S)\n'
b'*       1              2           1         8           2.2781           0.4586   396.79%\n'
b'*       1              2           1         8           2.2125           0.4586   382.48%\n'
b'*       1              2           1         8           1.7294           0.4586   277.13%\n'
b'*       1              2           1         8           1.6957           0.4586   269.78%\n'
b'*       1              2           1         8           1.5922           0.4586   247.21%\n'
b'*       1              2           1         8           1.4359           0.4586   213.13%\n'
b'*       1              2           1         8           1.2636           0.4586   175.56%\n'
b'*       1              2           1         8           1.0811           0.4586   135.76%\n'
b'        5           1002         188         8           1.0811           0.5840    85.12%\n'
b'        6           1386           0         0           1.0811           1.0811     0.00%\n'
b'SCIP Status        : problem is solved\n'
b'Total Time         : 6.09\n'
b'  solving          : 6.09\n'
b'  presolving       : 0.06 (included in solving)\n'
b'B&B Tree           :\n'
b'  nodes (total)    : 1386\n'
b'Solution           :\n'
b'  Solutions found  : 8\n'
b'  Primal Bound     : +1.08111511461860e+00\n'
b'  Dual Bound       : +1.08111511461860e+00\n'
b'Gap                : 0.00000 %\n'
